SCIP Status        : solving was interrupted [time limit reached]
Total Time         :    3600.01
  solving          :    3600.00
  presolving       :       0.18 (included in solving)
  reading          :       0.01
  copying          :       3.72 (50 #copies) (minimal 0.00, maximal 0.16, average 0.07)
Original Problem   :
  Problem name     : bbbenchmark/g05_100.6.cut
  Variables        : 101 (100 binary, 0 integer, 0 implicit integer, 1 continuous)
  Constraints      : 1 initial, 1 maximal
  Objective        : minimize, 1 non-zeros (abs.min = 1, abs.max = 1)
Presolved Problem  :
  Problem name     : t_bbbenchmark/g05_100.6.cut
  Variables        : 1869 (100 binary, 0 integer, 1754 implicit integer, 15 continuous)
  Constraints      : 1797 initial, 11838 maximal
  Objective        : minimize, 1 non-zeros (abs.min = 1, abs.max = 1)
  Nonzeros         : 8643 constraint, 202 clique table
Presolvers         :   ExecTime  SetupTime  Calls  FixedVars   AggrVars   ChgTypes  ChgBounds   AddHoles    DelCons    AddCons   ChgSides   ChgCoefs
  boundshift       :       0.00       0.00      0          0          0          0          0          0          0          0          0          0
  convertinttobin  :       0.00       0.00      0          0          0          0          0          0          0          0          0          0
  domcol           :       0.00       0.00      1          0          0          0          0          0          0          0          0          0
  dualagg          :       0.00       0.00      0          0          0          0          0          0          0          0          0          0
  dualcomp         :       0.00       0.00      1          0          0          0          0          0          0          0          0          0
  dualinfer        :       0.00       0.00      0          0          0          0          0          0          0          0          0          0
  dualsparsify     :       0.00       0.00      1          0          0          0          0          0          0          0          0          0
  gateextraction   :       0.00       0.00      0          0          0          0          0          0          0          0          0          0
  implics          :       0.00       0.00      2          0          0          0          0          0          0          0          0          0
  inttobinary      :       0.00       0.00      0          0          0          0          0          0          0          0          0          0
  qpkktref         :       0.00       0.00      0          0          0          0          0          0          0          0          0          0
  redvub           :       0.00       0.00      0          0          0          0          0          0          0          0          0          0
  sparsify         :       0.00       0.00      1          0          0          0          0          0          0          0          0          0
  stuffing         :       0.00       0.00      0          0          0          0          0          0          0          0          0          0
  trivial          :       0.00       0.00      4          0          0          0          0          0          0          0          0          0
  tworowbnd        :       0.00       0.00      0          0          0          0          0          0          0          0          0          0
  dualfix          :       0.00       0.00      4          0          0          0          0          0          0          0          0          0
  genvbounds       :       0.00       0.00      0          0          0          0          0          0          0          0          0          0
  probing          :       0.14       0.00      1          0          0          0          0          0          0          0          0          0
  pseudoobj        :       0.00       0.00      1          0          0          0          1          0          0          0          0          0
  symmetry         :       0.00       0.00      0          0          0          0          0          0          0          0          0          0
  vbounds          :       0.00       0.00      1          0          0          0          0          0          0          0          0          0
  varbound         :       0.00       0.00      2          0          0          0          0          0          0          0          0          0
  and              :       0.00       0.01      2          0          0          0          0          0          0          0          0          0
  linear           :       0.00       0.00      2          0          0          0          0          0          0          0          0          0
  logicor          :       0.00       0.00      0          0          0          0          0          0          0          0          0          0
  bounddisjunction :       0.00       0.00      0          0          0          0          0          0          0          0          0          0
  nonlinear        :       0.04       0.00      5          0          0          0          1          0          0       1796          0          0
  benders          :       0.00       0.00      0          0          0          0          0          0          0          0          0          0
  components       :       0.00       0.00      1          0          0          0          0          0          0          0          0          0
  root node        :          -          -      -          0          -          -         14          -          -          -          -          -
Constraints        :     Number  MaxNumber  #Separate #Propagate    #EnfoLP    #EnfoRelax  #EnfoPS    #Check   #ResProp    Cutoffs    DomReds       Cuts    Applied      Conss   Children
  benderslp        :          0          0          0          0      61374          0          0      11307          0          0          0          0          0          0          0
  integral         :          0          0          0          0      61374          0          0      11307          0          0        992          0          0        582     121726
  varbound         :         14         14        113     426385          0          0          0         28          0          0      13255          0          0          0          0
  and              :       1754       1754      79502     558618         20          0          0         28     377941          3    1631033      15526      14380          0          0
  linear           :         29+       129        113     558670         20          0          0         26       1903         27     186343          0          0          0          0
  logicor          :          0+      8783          0      89343          0          0          0          0        117        305         70          0          0          0          0
  bounddisjunction :          0+      1517          0      48334          0          0          0          0          2         15          0          0          0          0          0
  benders          :          0          0          0          0         20          0          0         27          0          0          0          0          0          0          0
  countsols        :          0          0          0          0         20          0          0         27          0          0          0          0          0          0          0
  components       :          0          0          0          0          0          0          0          0          0          0          0          0          0          0          0
Constraint Timings :  TotalTime  SetupTime   Separate  Propagate     EnfoLP     EnfoPS     EnfoRelax   Check    ResProp    SB-Prop
  benderslp        :       0.07       0.00       0.00       0.00       0.07       0.00       0.00       0.00       0.00       0.00
  integral         :      49.27       0.00       0.00       0.00      49.27       0.00       0.00       0.00       0.00       0.00
  varbound         :       0.39       0.00       0.00       0.37       0.00       0.00       0.00       0.01       0.00       0.01
  and              :      86.34       0.01      55.94      29.64       0.01       0.00       0.00       0.01       0.34       0.39
  linear           :       2.96       0.00       0.06       2.89       0.00       0.00       0.00       0.00       0.00       0.01
  logicor          :       7.31       0.00       0.00       7.28       0.00       0.00       0.00       0.00       0.00       0.03
  bounddisjunction :       1.43       0.00       0.00       1.41       0.00       0.00       0.00       0.00       0.00       0.02
  benders          :       0.00       0.00       0.00       0.00       0.00       0.00       0.00       0.00       0.00       0.00
  countsols        :       0.00       0.00       0.00       0.00       0.00       0.00       0.00       0.00       0.00       0.00
  components       :       0.14       0.00       0.00       0.13       0.00       0.00       0.00       0.00       0.00       0.01
Propagators        : #Propagate   #ResProp    Cutoffs    DomReds
  dualfix          :          4          0          0          0
  genvbounds       :          0          0          0          0
  nlobbt           :          0          0          0          0
  obbt             :          0          0          0          0
  probing          :          0          0          0          0
  pseudoobj        :     256252          0          0         39
  redcost          :     153982          0          0      86472
  rootredcost      :         30          0          0          0
  symmetry         :          0          0          0          0
  vbounds          :      63297          0          0          0
Propagator Timings :  TotalTime  SetupTime   Presolve  Propagate    ResProp    SB-Prop
  dualfix          :       0.00       0.00       0.00       0.00       0.00       0.00
  genvbounds       :       0.39       0.00       0.00       0.37       0.00       0.02
  nlobbt           :       0.00       0.00       0.00       0.00       0.00       0.00
  obbt             :       0.00       0.00       0.00       0.00       0.00       0.00
  probing          :       0.14       0.00       0.14       0.00       0.00       0.00
  pseudoobj        :       0.44       0.00       0.00       0.42       0.00       0.02
  redcost          :      10.20       0.00       0.00      10.19       0.00       0.01
  rootredcost      :       0.35       0.00       0.00       0.35       0.00       0.00
  symmetry         :       0.24       0.00       0.00       0.24       0.00       0.00
  vbounds          :       0.48       0.00       0.00       0.47       0.00       0.01
Conflict Analysis  :       Time      Calls    Success    DomReds  Conflicts   Literals    Reconvs ReconvLits   Dualrays   Nonzeros   LP Iters   (pool size: [10000,10000])
  propagation      :       0.03        329        251          -        491       79.1          0        0.0          -          -          -
  infeasible LP    :       0.30        156        156          -       6114      133.9          0        0.0        375      146.7          0
  bound exceed. LP :      21.58       5441       4977          -     113411      108.3          2       64.5          0        0.0      55943
  strong branching :       0.00          0          0          -          0        0.0          0        0.0          -          -          0
  pseudo solution  :       0.00          0          0          -          0        0.0          0        0.0          -          -          -
  applied globally :       0.75          -          -          0      29307      115.1          -          -        375          -          -
  applied locally  :          -          -          -          0          0        0.0          -          -          0          -          -
Separators         :   ExecTime  SetupTime      Calls  RootCalls    Cutoffs    DomReds  FoundCuts ViaPoolAdd  DirectAdd    Applied ViaPoolApp  DirectApp      Conss
  cut pool         :       5.86          -      24040        140          -          -      40323    1558765          -          -          -          -          -    (maximal pool size:       2827)
  aggregation      :      17.34       0.00       5895        113          0          0        859       1009          0        148        148          0          0
  > cmir           :          -          -          -          -          -          -          -       1009          0        148        148          0          -
  > flowcover      :          -          -          -          -          -          -          -          0          0          0          0          0          -
  > knapsackcover  :          -          -          -          -          -          -          -          0          0          0          0          0          -
  cgmip            :       0.00       0.00          0          0          0          0          0          0          0          0          0          0          0
  clique           :       0.00       0.00        113        113          0          0          0          0          0          0          0          0          0
  closecuts        :       0.00       0.00          0          0          0          0          0          0          0          0          0          0          0
  convexproj       :       0.00       0.00          0          0          0          0          0          0          0          0          0          0          0
  disjunctive      :       0.00       0.00          0          0          0          0          0          0          0          0          0          0          0
  eccuts           :       0.00       0.00          0          0          0          0          0          0          0          0          0          0          0
  gauge            :       0.00       0.00          0          0          0          0          0          0          0          0          0          0          0
  gomory           :       0.00       0.00          0          0          0          0          0          0          0          0          0          0          0
  > gomorymi       :          -          -          -          -          -          -          -          0          0          0          0          0          -
  > strongcg       :          -          -          -          -          -          -          -          0          0          0          0          0          -
  impliedbounds    :       0.35       0.00       5895        113          0          0         25          0          0          0          0          0          0
  interlattice     :       0.32       0.00         83         83          0          0         83          0         83         82          0         82          0
  interminor       :       0.00       0.00          0          0          0          0          0          0          0          0          0          0          0
  intersub         :       0.06       0.00          2          2          0          0          0          0          0          0          0          0          0
  intobj           :       0.00       0.00          0          0          0          0          0          0          0          0          0          0          0
  mcf              :       0.00       0.00          1          1          0          0          0          0          0          0          0          0          0
  minor            :       0.01       0.00          0          0          0          0          0          0          0          0          0          0          0
  mixing           :       0.01       0.00       5895        113          0          0          0          0          0          0          0          0          0
  oddcycle         :       0.00       0.00          0          0          0          0          0          0          0          0          0          0          0
  rapidlearning    :       0.01       0.00          0          0          0          0          0          0          0          0          0          0          0
  rlt              :       0.00       0.00         10         10          0          0          0          0          0          0          0          0          0
  zerohalf         :      60.18       0.00       5361         20          0          0      39439    1557756          0     208387     208387          0          0
Cutselectors       :   ExecTime  SetupTime      Calls  RootCalls   Selected     Forced   Filtered  RootSelec   RootForc   RootFilt 
  hybrid           :       1.55       0.00      22618        113     222997          0    1351377        277          0         13
Pricers            :   ExecTime  SetupTime      Calls       Vars
  problem variables:       0.00          -          0          0
Branching Rules    :   ExecTime  SetupTime   BranchLP  BranchExt   BranchPS    Cutoffs    DomReds       Cuts      Conss   Children
  allfullstrong    :       0.00       0.00          0          0          0          0          0          0          0          0
  cloud            :       0.00       0.00          0          0          0          0          0          0          0          0
  distribution     :       0.00       0.00          0          0          0          0          0          0          0          0
  fullstrong       :       0.00       0.00          0          0          0          0          0          0          0          0
  inference        :       0.00       0.00          0          0          0          0          0          0          0          0
  leastinf         :       0.00       0.00          0          0          0          0          0          0          0          0
  lookahead        :       0.00       0.00          0          0          0          0          0          0          0          0
  mostinf          :       0.00       0.00          0          0          0          0          0          0          0          0
  multaggr         :       0.00       0.00          0          0          0          0          0          0          0          0
  nodereopt        :       0.00       0.00          0          0          0          0          0          0          0          0
  pscost           :       0.00       0.00          0          0          0          0          0          0          0          0
  random           :       0.00       0.00          0          0          0          0          0          0          0          0
  relpscost        :      49.00       0.00      61354          0          0          0        992          0        672     121726
  vanillafullstrong:       0.00       0.00          0          0          0          0          0          0          0          0
Primal Heuristics  :   ExecTime  SetupTime      Calls      Found       Best
  LP solutions     :       0.28          -          -         20         20
  relax solutions  :       0.00          -          -          0          0
  pseudo solutions :       0.00          -          -          0          0
  strong branching :       0.05          -          -          1          1
  actconsdiving    :       0.00       0.00          0          0          0
  adaptivediving   :       5.23       0.00         30          0          0
  alns             :       2.90       0.00         19          4          4
  bound            :       0.00       0.00          0          0          0
  clique           :       0.00       0.00          1          0          0
  coefdiving       :       0.00       0.00          0          0          0
  completesol      :       0.00       0.00          0          0          0
  conflictdiving   :      94.14       0.00        710          0          0
  crossover        :       6.70       0.00         13          2          2
  dins             :       0.00       0.00          0          0          0
  distributiondivin:      93.11       0.00        387          0          0
  dps              :       0.00       0.00          0          0          0
  dualval          :       0.00       0.00          0          0          0
  farkasdiving     :       0.02       0.00          0          0          0
  feaspump         :       0.17       0.00          1          1          1
  fixandinfer      :       0.00       0.00          0          0          0
  fracdiving       :      53.17       0.00        409          0          0
  gins             :       0.08       0.00          0          0          0
  guideddiving     :      52.40       0.00        409          2          2
  indicator        :       0.06       0.00          0          0          0
  indicatordiving  :       0.00       0.00          0          0          0
  intdiving        :       0.00       0.00          0          0          0
  intshifting      :       0.69       0.00         78          0          0
  linesearchdiving :      53.24       0.00        409          0          0
  localbranching   :       0.00       0.00          0          0          0
  locks            :       0.01       0.00          1          0          0
  lpface           :       0.08       0.00          0          0          0
  mpec             :     145.67       0.00         11          2          1
  multistart       :       0.00       0.00          0          0          0
  mutation         :       0.00       0.00          0          0          0
  nlpdiving        :      16.56       0.00          7          0          0
  objpscostdiving  :      60.67       0.00         44          6          0
  octane           :       0.00       0.00          0          0          0
  ofins            :       0.03       0.00          0          0          0
  oneopt           :       0.11       0.00         34          0          0
  padm             :       0.00       0.00          0          0          0
  proximity        :       0.00       0.00          0          0          0
  pscostdiving     :      75.20       0.00        368          1          1
  randrounding     :       0.84       0.00      11276          0          0
  rens             :       0.00       0.00          0          0          0
  reoptsols        :       0.00       0.00          0          0          0
  repair           :       0.00       0.00          0          0          0
  rins             :       8.55       0.00         17          0          0
  rootsoldiving    :      41.50       0.00         33          0          0
  rounding         :       1.18       0.00       4049          0          0
  shiftandpropagate:       0.00       0.00          0          0          0
  shifting         :      39.10       0.00       8706          2          2
  simplerounding   :       0.11       0.00          0          0          0
  subnlp           :     112.47       0.00          0          0          0
  trivial          :       0.00       0.00          2          2          2
  trivialnegation  :       0.00       0.00          0          0          0
  trustregion      :       0.00       0.00          0          0          0
  trysol           :       0.09       0.00          0          0          0
  twoopt           :       0.00       0.00          0          0          0
  undercover       :       1.17       0.00          1          1          1
  vbounds          :       0.00       0.00          0          0          0
  veclendiving     :      47.05       0.00        409          0          0
  zeroobj          :       0.00       0.00          0          0          0
  zirounding       :       0.36       0.00       1000          0          0
  other solutions  :          -          -          -          0          -
Diving (single)    :      Calls      Nodes   LP Iters Backtracks  Conflicts   MinDepth   MaxDepth   AvgDepth  RoundSols  NLeafSols  MinSolDpt  MaxSolDpt  AvgSolDpt
  actconsdiving    :          0          -          -          -          -          -          -          -          -          -          -          -          -
  coefdiving       :          0          -          -          -          -          -          -          -          -          -          -          -          -
  conflictdiving   :        710      34729     960266        722      44220         61         88       71.7          0          -          -          -          -
  distributiondivin:        387      13670     661893        440       7537         45         75       58.0          0          -          -          -          -
  farkasdiving     :          0          -          -          -          -          -          -          -          -          -          -          -          -
  fracdiving       :        409      49797     483359        212       2958         54        700      145.0          0          -          -          -          -
  guideddiving     :        409      41932     485391        147       5080         56        461      125.9          0          2         91        104       97.5
  indicatordiving  :          0          -          -          -          -          -          -          -          -          -          -          -          -
  linesearchdiving :        409      19169     514265        191      19080         50        107       69.5          0          -          -          -          -
  pscostdiving     :        368      15531     682580        378      11418         48         79       64.7          0          1         66         66       66.0
  veclendiving     :        409      18500     468768        280      25157         55         83       68.7          0          -          -          -          -
Diving (adaptive)  :      Calls      Nodes   LP Iters Backtracks  Conflicts   MinDepth   MaxDepth   AvgDepth  RoundSols  NLeafSols  MinSolDpt  MaxSolDpt  AvgSolDpt
  actconsdiving    :          2         86       3528          2         53         58         58       58.0          0          -          -          -          -
  coefdiving       :         10        494      12385          5        557         57         78       69.2          0          -          -          -          -
  conflictdiving   :          0          -          -          -          -          -          -          -          -          -          -          -          -
  distributiondivin:          0          -          -          -          -          -          -          -          -          -          -          -          -
  farkasdiving     :          0          -          -          -          -          -          -          -          -          -          -          -          -
  fracdiving       :          2        539       9359          9         40        102        467      284.5          0          -          -          -          -
  guideddiving     :          1         98       1063          0         21        117        117      117.0          0          -          -          -          -
  indicatordiving  :          0          -          -          -          -          -          -          -          -          -          -          -          -
  linesearchdiving :         11        576      14955          3        521         58         94       72.5          0          -          -          -          -
  pscostdiving     :          1         42       2464          1         34         60         60       60.0          0          -          -          -          -
  veclendiving     :          3        131       3534          1        153         64         70       66.3          0          -          -          -          -
Neighborhoods      :      Calls  SetupTime  SolveTime SolveNodes       Sols       Best       Exp3  EpsGreedy        UCB TgtFixRate  Opt  Inf Node Stal  Sol  Usr Othr Actv
  rens             :          2       0.06       0.04         11          0          0    0.00000   -1.00000    0.53422      0.550    0    2    0    0    0    0    0    1
  rins             :          1       0.03       0.01         15          0          0    0.00000   -1.00000    0.55423      0.700    0    1    0    0    0    0    0    1
  mutation         :          2       0.22       0.09         66          0          0    0.00000   -1.00000    0.47330      0.850    0    1    0    1    0    0    0    1
  localbranching   :          5       0.25       0.14        213          3          3    0.00000   -1.00000    0.53334      0.879    0    1    0    3    1    0    0    1
  crossover        :          2       0.26       0.09         73          0          0    0.00000   -1.00000    0.47045      0.850    0    1    0    1    0    0    0    1
  proximity        :          2       0.26       0.20         80          0          0    0.00000   -1.00000    0.46838      0.850    0    1    0    1    0    0    0    1
  zeroobjective    :          2       0.22       0.06         73          0          0    0.00000   -1.00000    0.46562      0.850    0    1    0    1    0    0    0    1
  dins             :          3       0.50       0.25        322          1          1    0.00000   -1.00000    0.48605      0.812    0    1    0    2    0    0    0    1
  trustregion      :          0       0.00       0.00          0          0          0    0.00000   -1.00000    1.00000      0.900    0    0    0    0    0    0    0    0
Expressions        :   #IntEval  IntEvalTi   #RevProp  RevPropTi    DomReds    Cutoffs  #Estimate  EstimTime  Branching  #Simplify SimplifyTi Simplified
  pow              :          0       0.00          0       0.00          0          0          0       0.00          0          0       0.00          0
  prod             :       9900       0.00          0       0.00          0          0          0       0.00          0       6704       0.01          0
  sum              :          8       0.00          2       0.00          0          0          0       0.00          0          3       0.00          2
  var              :       6416       0.00          0       0.00          0          0          0       0.00          0      15479       0.01          0
  varidx           :          0       0.00          0       0.00          0          0          0       0.00          0          0       0.00          0
LP                 :       Time      Calls Iterations  Iter/call   Iter/sec  Time-0-It Calls-0-It    ItLimit
  primal LP        :     103.07       8224          0       0.00       0.00     103.00       8224
  dual LP          :    2220.08     121500   12855494     113.91    5790.55       4.06       8639
  lex dual LP      :       0.00          0          0       0.00          -
  barrier LP       :       0.00          0          0       0.00          -       0.00          0
  resolve instable :       0.00          0          0       0.00          -
  diving/probing LP:     486.38      15318    4836012     315.71    9942.87
  strong branching :      22.58       1883     215843     114.63    9559.03          -          -         70
    (at root node) :          -         19       5378     283.05          -
  conflict analysis:       8.53       5753      55943       9.72    6558.38
NLP relaxation     :
  solve time       :      16.07 (16 calls)
  convexity        :  nonconvex (43 linear rows, 0 convex ineq., 0 nonconvex ineq., 1754 nonlinear eq. or two-sided ineq.)
NLP Solvers        :  #Problems  ProblemTi    #Solves  SolveTime      #Iter  Time/Iter      #Okay #TimeLimit #IterLimit #LObjLimit #Interrupt  #NumError #EvalError  #OutOfMem #LicenseEr #OtherTerm   #GlobOpt    #LocOpt  #Feasible #LocInfeas #GlobInfea #Unbounded   #Unknown
  ipopt            :         12       4.87         43     167.02       1812       0.09         43          0          0          0          0          0          0          0          0          0          0         27          0         10          0          0          6
B&B Tree           :
  number of runs   :          1
  nodes            :      89779 (60863 internal, 28916 leaves)
  feasible leaves  :         20
  infeas. leaves   :          6
  objective leaves :      28889
  nodes (total)    :      89779 (60863 internal, 28916 leaves)
  nodes left       :      31680
  max depth        :         72
  max depth (total):         72
  backtracks       :      14721 (16.4%)
  early backtracks :          0 (0.0%)
  nodes exc. ref.  :          0 (0.0%)
  delayed cutoffs  :          1
  repropagations   :       1063 (421 domain reductions, 0 cutoffs)
  avg switch length:       4.80
  switching time   :     126.01
Estim. Tree Size   :     180094
Estimation Tree    : 121727 nodes (90047 visited, 60863 internal, 29184 leaves, 31680 open), weight: 0.0000 completed 0.0889
Estimations        :      estim      value      trend resolution     smooth
  wbe              : 11672740607154          -          -          -          -
  tree-profile     :         -1          -          -          -          -
  gap              :    2233718    0.68388    0.00001         32    2359585
  tree-weight      :     180094    0.00000    0.00000         32     180014
  leaf-frequency   :    1561382    0.32409    0.00001         32    1479441
  ssg              :    2608261    0.85956   -0.00002         32    2580647
  open-nodes       :     180094 31680.00000   20.22096         32     180014
Root Node          :
  First LP value   : -1.00000000000000e+00
  First LP Iters   :       1597 (17744.44 Iter/sec)
  First LP Time    :       0.09
  Final Dual Bound : -9.49048821548822e-01
  Final Root Iters :       3413
  Root LP Estimate : -4.00788330228479e-01
Solution           :
  Solutions found  :         44 (37 improvements)
  First Solution   : +1.00000000000000e+05   (in run 1, after 0 nodes, 0.00 seconds, depth 0, found by <trivial>)
  Gap First Sol.   :   infinite
  Gap Last Sol.    :      46.71 %
  Primal Bound     : -5.73333333333331e-01   (in run 1, after 81750 nodes, 2789.86 seconds, depth 40, found by <alns>)
  Dual Bound       : -8.38351614637406e-01
  Gap              :      46.22 %
Integrals          :      Total       Avg%
  primal-dual      :  123938.01      34.43
  primal-ref       :          -          - (not evaluated)
  dual-ref         :          -          - (not evaluated)
